50
    76    93    81    21    39    34    52     6    44    92    42    33    98     4    75    23    71    99    94    37    99    94    56    77    86   100    34    85    99    17    15    45    73    35     4    78     5    36    20    51    62    92    99    67    74    65    91    71    38     9
     2     7     6     1    10     4     9     9     5     5     1     9     2     9     3     6     5     2     1     7     9     9     4    10     8     9     8     6     4     2     3     8     2     3     2     1     5     3     5     3     4     4     6     2     2     1     2     1     1     9
  1891  1894  1738  1627  1310  1510  1928  2193  2294  2094  1522  1969  1500  2247  2010  2304  2234  2190  2100  2102  2076  1275  1790  1985  1865  1850  1255  2082  1407  2145  1453  1565  1525  1288  1857  2219  2082  1439  2224  2202  1726  1254  1472  1921  1677  1480  1760  1264  2010  1887
